Traveling Salesman Problem/TSP_generados/Aleatorio1620391024_13.tsp
NAME: Aleatorio1620391024_13.tsp
COMMENT: Randomly generated scenario
TYPE: TSP
DIMENSION: 13
EDGE_WEIGHT_TYPE: ATT
NODE_COORD_SECTION
1 41.98 12.59
2 35.68 19.52
3 6.4 42.68
4 20.46 35.24
5 29.93 29.42
6 35.1 0.99
7 17.94 21.23
8 2.5 3.16
9 24.23 8.97
10 24.66 15.08
11 7.83 40.6
12 17.45 6.26
13 21.65 38.62
