Traveling Salesman Problem/TSP_generados/Aleatorio1620391024_13.opt.tour
NAME: Aleatorio1620391024_13.opt.tour
COMMENT: Optimal solution for Aleatorio1620391024_13 (159.1539691165814)
TYPE: TOUR
DIMENSION: 13
TOUR_SECTION
1 6 10 9 12 8 7 11 3 13 4 5 2
-1
EOF
